benchmarks/bfuzz0/27491224151017265772019314022781416207.smt2
(set-logic QF_FP)
(declare-const x0 (_ FloatingPoint 11 53))
(declare-const x1 (_ FloatingPoint 11 53))
(declare-const x2 (_ FloatingPoint 11 53))
(declare-const x3 (_ FloatingPoint 11 53))
(declare-const x4 (_ FloatingPoint 11 53))
(declare-const x5 (_ FloatingPoint 11 53))
(declare-const x6 (_ FloatingPoint 11 53))
(declare-const x7 (_ FloatingPoint 11 53))
(declare-const x8 (_ FloatingPoint 11 53))
(declare-const x9 (_ FloatingPoint 11 53))
(declare-const x10 (_ FloatingPoint 11 53))
(declare-const x11 (_ FloatingPoint 11 53))
(declare-const x12 (_ FloatingPoint 11 53))
(declare-const x13 (_ FloatingPoint 11 53))
(declare-const x14 (_ FloatingPoint 11 53))
(declare-const x15 (_ FloatingPoint 11 53))
(declare-const x16 (_ FloatingPoint 11 53))
(declare-const x17 (_ FloatingPoint 11 53))
(declare-const x18 (_ FloatingPoint 11 53))
(declare-const x19 (_ FloatingPoint 11 53))
(assert (fp.eq (fp.neg x3) (fp.div RNE x7 x10)))
(assert (fp.eq (fp.neg x16) (fp.div RNE x3 x8)))
(assert (fp.gt (fp.add RNE x2 x7) (fp.neg x2)))
(assert (fp.geq (fp.neg x15) (fp.add RNE x1 x0)))
(assert (fp.gt (fp.add RNE x0 x5) (fp.neg x8)))
(assert (fp.geq (fp.add RNE x16 x19) (fp.add RNE x11 x18)))
(assert (fp.geq (fp.mul RNE x4 x5) (fp.sub RNE x6 x18)))
(assert (fp.gt (fp.neg x13) (fp.mul RNE x8 x17)))
(assert (fp.eq (fp.neg x19) (fp.neg x17)))
(assert (fp.eq (fp.neg x13) (fp.neg x0)))
(assert (fp.leq (fp.neg x1) (fp.sub RNE x12 x7)))
(assert (fp.eq (fp.add RNE x1 x14) (fp.sub RNE x1 x2)))
(assert (fp.gt (fp.sub RNE x10 x11) (fp.div RNE x3 x13)))
(assert (fp.gt (fp.sub RNE x9 x10) (fp.mul RNE x5 x14)))
(assert (fp.lt (fp.neg x15) (fp.add RNE x16 x6)))
(assert (fp.leq (fp.div RNE x16 x17) (fp.add RNE x2 x17)))
(assert (fp.gt (fp.div RNE x5 x12) (fp.add RNE x1 x11)))
(check-sat)
