db/data/27491224151017265772019314022781416207.z3.out
-------------------
2500.127298920
